(set-info :smt-lib-version 2.6)
(set-logic QF_NRA)
(set-info :source |
Generated by: Anastasiia Izycheva, Eva Darulova
Generated on: 2020-09-11
Generator: Pine (using Z3 Python API)
Application: Check inductiveness of a loop invariant
Target solver: Z3

These benchmarks were generated while developing the tool Pine [1], which uses
CVC4/Z3 to check inductiveness of invariants. The work is described in [2].

[1] https://github.com/izycheva/pine
[2] A.Izycheva, E.Darulova, H.Seidl, SAS'20, "Counterexample- and Simulation-Guided Floating-Point Loop Invariant Synthesis"

 Loop:
   x1' := x1 + 0.01 * x2
   x2' := -0.01 * x1 + 0.99 * x2

 Input ranges:
   x1 in [0.0,1.0]
   x2 in [0.0,1.0]

 Invariant:
   -1.0*x1 + -0.32*x2 + 0.88*x1^2 + 0.19*x1*x2 + 0.73*x2^2 <= 0.54
 and
   x1 in [-0.4,1.5]
   x2 in [-0.9,1.0]

 Query: Loop and Invariant and not Invariant'
|)
(set-info :license "https://creativecommons.org/licenses/by/4.0/")
(set-info :category "industrial")
(set-info :status unknown)
(declare-fun x1! () Real)
(declare-fun x2! () Real)
(declare-fun x2 () Real)
(declare-fun x1 () Real)
(assert
 (let ((?x216 (+ (* (* (/ 19.0 100.0) x1!) x2!) (+ (* (* (/ 73.0 100.0) x2!) x2!) (* (- 1.0) x1!)))))
 (let (($x94 (>= (/ 27.0 50.0) (+ (* (- (/ 8.0 25.0)) x2!) (+ (* (* (/ 22.0 25.0) x1!) x1!) ?x216)))))
 (let (($x47 (and (<= (- (/ 2.0 5.0)) x1!) (>= (/ 3.0 2.0) x1!) (<= (- (/ 9.0 10.0)) x2!) (>= 1.0 x2!))))
 (let (($x137 (and (= x1! (+ x1 (* (/ 1.0 100.0) x2))) (= x2! (+ (* (- (/ 1.0 100.0)) x1) (* (/ 99.0 100.0) x2))))))
 (let ((?x215 (+ (* (* (/ 19.0 100.0) x1) x2) (+ (* (* (/ 73.0 100.0) x2) x2) (* (- 1.0) x1)))))
 (let (($x93 (>= 1.0 x2)))
 (let (($x165 (and (and (<= (- (/ 2.0 5.0)) x1) (>= (/ 3.0 2.0) x1) (<= (- (/ 9.0 10.0)) x2) $x93) (>= (/ 27.0 50.0) (+ (* (- (/ 8.0 25.0)) x2) (+ (* (* (/ 22.0 25.0) x1) x1) ?x215))) )))
 (and $x165 $x137 (not (and $x47 $x94 )))))))))))
(check-sat)
(exit)
